LAMMPS (30 Mar 2026 - Development - 7f680de)
Lattice spacing in x,y,z = 1.6795962 1.6795962 1.6795962
Created orthogonal box = (0 0 0) to (16.795962 16.795962 16.795962)
  1 by 1 by 1 MPI processor grid
Created 4000 atoms
  using lattice units in orthogonal box = (0 0 0) to (16.795962 16.795962 16.795962)
  create_atoms CPU = 0.009 seconds
Generated 0 of 0 mixed pair_coeff terms from geometric mixing rule
Neighbor list info ...
  update: every = 20 steps, delay = 0 steps, check = no
  max neighbors/atom: 2000, page size: 100000
  master list distance cutoff = 2.8
  ghost atom cutoff = 2.8
  binsize = 1.4, bins = 12 12 12
  1 neighbor lists, perpetual/occasional/extra = 1 0 0
  (1) pair lj/cut, perpetual
      attributes: half, newton on
      pair build: half/bin/atomonly/newton
      stencil: half/bin/3d
      bin: standard
Setting up Verlet run ...
  Unit style    : lj
  Current step  : 0
  Time step     : 0.005
Per MPI rank memory allocation (min/avg/max) = 3.222 | 3.222 | 3.222 Mbytes
   Step          Temp          E_pair         E_mol          TotEng         Press     
         0   3             -6.7733681      0             -2.2744931     -3.7033504    
        50   1.6633961     -4.776733       0             -2.2822627      5.7069855    
       100   1.6598853     -4.7701752      0             -2.2809697      5.7725519    
       150   1.656155      -4.7652128      0             -2.2816013      5.7629074    
       200   1.670053      -4.7850515      0             -2.2805982      5.7072318    
       250   1.6522386     -4.759357       0             -2.2816186      5.7696838    
Loop time of 7.75535 on 1 procs for 250 steps with 4000 atoms

Performance: 13925.864 tau/day, 32.236 timesteps/s, 128.943 katom-step/s
99.9% CPU use with 1 MPI tasks x no OpenMP threads

MPI task timing breakdown:
Section |  min time  |  avg time  |  max time  |%varavg| %total
---------------------------------------------------------------
Pair    | 7.0551     | 7.0551     | 7.0551     |   0.0 | 90.97
Neigh   | 0.35134    | 0.35134    | 0.35134    |   0.0 |  4.53
Comm    | 0.052129   | 0.052129   | 0.052129   |   0.0 |  0.67
Output  | 0.19774    | 0.19774    | 0.19774    |   0.0 |  2.55
Modify  | 0.073979   | 0.073979   | 0.073979   |   0.0 |  0.95
Other   |            | 0.02503    |            |       |  0.32

Nlocal:           4000 ave        4000 max        4000 min
Histogram: 1 0 0 0 0 0 0 0 0 0
Nghost:           5480 ave        5480 max        5480 min
Histogram: 1 0 0 0 0 0 0 0 0 0
Neighs:         151536 ave      151536 max      151536 min
Histogram: 1 0 0 0 0 0 0 0 0 0

Total # of neighbors = 151536
Ave neighs/atom = 37.884
Neighbor list builds = 12
Dangerous builds not checked
Total wall time: 0:00:08
